generated by phonopy
   1.0
     2.4688163987233831    0.0000000000000000    0.0000000000000000
    -1.2344081993616915    2.1380577185740615    0.0000000000000000
     0.0000000000000000    0.0000000000000000   20.0000000000000000
C
   2
Direct
  0.6666666666666666  0.3333333333333333  0.5000000000000000
  0.3333333333333334  0.6666666666666667  0.5000000000000000
