pymatgen with grid density = 858 / number of atoms
0
Gamma
7 7 1
