Global Parameters
ISTART =  1            (Read existing wavefunction; if there)
ENCUT  =  520        (Cut-off energy for plane wave basis set, in eV)
PREC   =  Accurate       (Precision level)
LWAVE  = .TRUE.        (Write WAVECAR or not)
LCHARG = .TRUE.        (Write CHGCAR or not)
ADDGRID= .TRUE.        (Increase grid; helps GGA convergence)
 
Electronic Relaxation
ISMEAR =  0            (Gaussian smearing; metals:1)
SIGMA  =  0.1         (Smearing value in eV; metals:0.2)
NELM   =  60           (Max electronic SCF steps)
NELMIN =  6            (Min electronic SCF steps)
EDIFF  =  1E-08        (SCF energy convergence; in eV)
 
Ionic Relaxation
NSW    =  100          (Max ionic steps)
IBRION =  2            (Algorithm: 0-MD; 1-Quasi-New; 2-CG)
ISIF   =  3            (Stress/relaxation: 2-Ions, 3-Shape/Ions/V, 4-Shape/Ions)
EDIFFG = -1E-04        (Ionic convergence; eV/AA)

NPAR = 4
