Primitive Cell
  1.000000
    1.57313354319889    0.90824907463711    7.61979022018597
   -1.57313354319889    0.90824907463711    7.61979022018597
    0.00000000000000   -1.81649814927422    7.61979022018597
  Ag  Cr  S 
   1   1   2
DIRECT
    0.8392931907906135    0.8392931907906135    0.8392931907906135    Ag1
    0.0015640366778845    0.0015640366778845    0.0015640366778845    Cr1
    0.7295889328646017    0.7295889328646018    0.7295889328646018     S1
    0.2705538630002360    0.2705538630002360    0.2705538630002360     S2
