generated by phonopy
   1.0
     1.7480000257371018    1.0092082854027886    6.8433335621999998
    -1.7480000257371018    1.0092082854027886    6.8433335621999980
     0.0000000000000001   -2.0184165708055772    6.8433335621999980
Ag Cr S
   1    1    2
Direct
  0.8450000090000003  0.8450000089999998  0.8450000090000001
  0.0000000000000000  0.0000000000000000  0.0000000000000000
  0.7260000209999999  0.7260000209999996  0.7260000209999999
  0.2699999933333335  0.2699999933333335  0.2699999933333335
