Cr3 Ag3 S6
1.0
3.539777 0.000000 0.000000
-1.769889 3.065537 0.000000
0.000000 0.000000 20.456405
Cr Ag S
3 3 6
direct
0.666667 0.333333 0.333400 Cr
0.333333 0.666667 0.666667 Cr
0.000000 0.000000 0.000067 Cr
0.000000 0.000000 0.153903 Ag
0.666667 0.333333 0.487236 Ag
0.333333 0.666667 0.820569 Ag
0.000000 0.000000 0.272983 S
0.666667 0.333333 0.065659 S
0.666667 0.333333 0.606316 S
0.333333 0.666667 0.398993 S
0.333333 0.666667 0.939650 S
0.000000 0.000000 0.732326 S
