Cr3 Ag3 S6
1.0
        3.5397770405         0.0000000000         0.0000000000
       -1.7698894053         3.0655374310         0.0000000000
        0.0000000000         0.0000000000        20.4564056396
   Cr   Ag    S
    2    1    4
Direct
     0.333332986         0.666665971         0.666666985
     0.666665971         0.333332986         0.333400011
     0.666665971         0.333332986         0.487235993
     0.000000000         0.000000000         0.272983015
     0.000000000         0.000000000         0.732325971
     0.333332986         0.666665971         0.398992985
     0.666665971         0.333332986         0.606315970
