AgCrS2
   1.0
     1.7480000257371018    1.0092082854027886    6.8433335621999998
    -1.7480000257371018    1.0092082854027886    6.8433335621999980
     0.0000000000000001   -2.0184165708055772    6.8433335621999980
Ag Cr S
   1    1    2
Direct
  0.1549999909999999  0.1549999909999999  0.1549999909999999
  0.0000000000000000  0.0000000000000000  0.0000000000000000
  0.2739999790000001  0.2739999790000001  0.2739999790000001
  0.7300000066666668  0.7300000066666663  0.7300000066666666
