generated by phonopy
   1.0
     4.4637156983064950    0.0000000000000000    0.0000000000000000
     0.0000000000000000    3.9996122296834842    0.0000000000000000
    -0.0213235285442420    0.0000000000000000   19.7405802869485996
Ge Te S
   2    1    1
Direct
  0.0417661494624541  0.5000000000000000  0.5652580103290461
  0.6169913597087061  0.0000000000000000  0.4419971891038870
  0.1767992131865343  0.5000000000000000  0.4284176668359834
  0.6885933206422977  0.0000000000000000  0.5616871247310868
