ALGO = N
ISMEAR = 0
ICHARG = 2
EDIFF = 0.000001
ENCUT = 520
IBRION = 8
PREC = Accurate
MAGMOM = 2*5.0 5*0.6
ISIF = 3
ISPIN = 2
LASPH = True
LORBIT = 11
LREAL = .FALSE.
LWAVE = .FALSE.
NELM = 200
NSW = 1
SIGMA = 0.05
