ISTART =0
ICHARGE=2
PREC = .Accurate.
ISPIN = 2
EDIFF = 1E-04 
EDIFFG = -0.05 
LREAL = Auto 
NSW = 200
IBRION = 2
ISIF = 3 
ISMEAR = 0, SIGMA = 0.1
ISYM = 0
K-spacing = 0.03Å-1 ~ 0.04Å-1