pymatgen with grid density = 858 / number of atoms
0
Gamma
13 13 1
