Primitive Cell
  1.000000
    1.57895339927790    0.91160917011097    7.54999316747649
   -1.57895339927790    0.91160917011097    7.54999316747649
    0.00000000000000   -1.82321834022194    7.54999316747649
  Cr  Ag  S 
   1   1   2
DIRECT
    0.9985762339682672    0.9985762339682672    0.9985762339682673    Cr1
    0.1603271807372717    0.1603271807372717    0.1603271807372717    Ag1
    0.2703161244527906    0.2703161244527907    0.2703161244527907     S1
    0.7300604381749994    0.7300604381749994    0.7300604381749994     S2