generated by phonopy
   1.0
     3.5397772789331139    0.0000000000000000    0.0000000000000000
    -1.7698886394665569    3.0655370472950314    0.0000000000000000
     0.0000000000000000    0.0000000000000000   20.4564056395999998
Cr Ag S
   2    1    4
Direct
  0.0000000000000000  0.0000000000000000  0.6666669850000000
  0.3333333333333333  0.6666666666666667  0.3334000110000000
  0.3333333333333333  0.6666666666666667  0.4872359930000000
  0.6666666666666666  0.3333333333333333  0.2729830150000000
  0.6666666666666666  0.3333333333333333  0.7323259710000000
  0.0000000000000000  0.0000000000000000  0.3989929850000000
  0.3333333333333333  0.6666666666666667  0.6063159700000000
