generated by phonopy
   1.0
     6.3158135971115996    3.6464366804438799   30.1999726699059607
    -6.3158135971115996    3.6464366804438799   30.1999726699059607
     0.0000000000000000   -3.6464366804438799   15.0999863349529804
Cr Ag S
  32   32   64
Direct
  0.2496440584920668  0.2496440584920668  0.4992881169841337
  0.4996440584920668  0.2496440584920668  0.4992881169841337
  0.7496440584920668  0.2496440584920668  0.4992881169841337
  0.9996440584920668  0.2496440584920668  0.4992881169841337
  0.2496440584920668  0.4996440584920668  0.4992881169841337
  0.4996440584920668  0.4996440584920668  0.4992881169841337
  0.7496440584920668  0.4996440584920668  0.4992881169841337
  0.9996440584920668  0.4996440584920668  0.4992881169841337
  0.2496440584920668  0.7496440584920668  0.4992881169841337
  0.4996440584920668  0.7496440584920668  0.4992881169841337
  0.7496440584920668  0.7496440584920668  0.4992881169841337
  0.9996440584920668  0.7496440584920668  0.4992881169841337
  0.2496440584920668  0.9996440584920668  0.4992881169841337
  0.4996440584920668  0.9996440584920668  0.4992881169841337
  0.7496440584920668  0.9996440584920668  0.4992881169841337
  0.9996440584920668  0.9996440584920668  0.4992881169841337
  0.2496440584920668  0.2496440584920668  0.9992881169841337
  0.4996440584920668  0.2496440584920668  0.9992881169841337
  0.7496440584920668  0.2496440584920668  0.9992881169841337
  0.9996440584920668  0.2496440584920668  0.9992881169841337
  0.2496440584920668  0.4996440584920668  0.9992881169841337
  0.4996440584920668  0.4996440584920668  0.9992881169841337
  0.7496440584920668  0.4996440584920668  0.9992881169841337
  0.9996440584920668  0.4996440584920668  0.9992881169841337
  0.2496440584920668  0.7496440584920668  0.9992881169841337
  0.4996440584920668  0.7496440584920668  0.9992881169841337
  0.7496440584920668  0.7496440584920668  0.9992881169841337
  0.9996440584920668  0.7496440584920668  0.9992881169841337
  0.2496440584920668  0.9996440584920668  0.9992881169841337
  0.4996440584920668  0.9996440584920668  0.9992881169841337
  0.7496440584920668  0.9996440584920668  0.9992881169841337
  0.9996440584920668  0.9996440584920668  0.9992881169841337
  0.0400817951843179  0.0400817951843179  0.0801635903686359
  0.2900817951843179  0.0400817951843179  0.0801635903686359
  0.5400817951843180  0.0400817951843179  0.0801635903686359
  0.7900817951843180  0.0400817951843179  0.0801635903686359
  0.0400817951843179  0.2900817951843179  0.0801635903686359
  0.2900817951843179  0.2900817951843179  0.0801635903686359
  0.5400817951843180  0.2900817951843179  0.0801635903686359
  0.7900817951843180  0.2900817951843179  0.0801635903686359
  0.0400817951843179  0.5400817951843180  0.0801635903686359
  0.2900817951843179  0.5400817951843180  0.0801635903686359
  0.5400817951843180  0.5400817951843180  0.0801635903686359
  0.7900817951843180  0.5400817951843180  0.0801635903686359
  0.0400817951843179  0.7900817951843180  0.0801635903686359
  0.2900817951843179  0.7900817951843180  0.0801635903686359
  0.5400817951843180  0.7900817951843180  0.0801635903686359
  0.7900817951843180  0.7900817951843180  0.0801635903686359
  0.0400817951843179  0.0400817951843179  0.5801635903686359
  0.2900817951843179  0.0400817951843179  0.5801635903686359
  0.5400817951843180  0.0400817951843179  0.5801635903686359
  0.7900817951843180  0.0400817951843179  0.5801635903686359
  0.0400817951843179  0.2900817951843179  0.5801635903686359
  0.2900817951843179  0.2900817951843179  0.5801635903686359
  0.5400817951843180  0.2900817951843179  0.5801635903686359
  0.7900817951843180  0.2900817951843179  0.5801635903686359
  0.0400817951843179  0.5400817951843180  0.5801635903686359
  0.2900817951843179  0.5400817951843180  0.5801635903686359
  0.5400817951843180  0.5400817951843180  0.5801635903686359
  0.7900817951843180  0.5400817951843180  0.5801635903686359
  0.0400817951843179  0.7900817951843180  0.5801635903686359
  0.2900817951843179  0.7900817951843180  0.5801635903686359
  0.5400817951843180  0.7900817951843180  0.5801635903686359
  0.7900817951843180  0.7900817951843180  0.5801635903686359
  0.0675790311131976  0.0675790311131977  0.1351580622263953
  0.3175790311131976  0.0675790311131977  0.1351580622263953
  0.5675790311131976  0.0675790311131977  0.1351580622263953
  0.8175790311131976  0.0675790311131977  0.1351580622263953
  0.0675790311131976  0.3175790311131977  0.1351580622263953
  0.3175790311131976  0.3175790311131977  0.1351580622263953
  0.5675790311131976  0.3175790311131977  0.1351580622263953
  0.8175790311131976  0.3175790311131977  0.1351580622263953
  0.0675790311131976  0.5675790311131976  0.1351580622263953
  0.3175790311131976  0.5675790311131976  0.1351580622263953
  0.5675790311131976  0.5675790311131976  0.1351580622263953
  0.8175790311131976  0.5675790311131976  0.1351580622263953
  0.0675790311131976  0.8175790311131976  0.1351580622263953
  0.3175790311131976  0.8175790311131976  0.1351580622263953
  0.5675790311131976  0.8175790311131976  0.1351580622263953
  0.8175790311131976  0.8175790311131976  0.1351580622263953
  0.0675790311131976  0.0675790311131977  0.6351580622263954
  0.3175790311131976  0.0675790311131977  0.6351580622263954
  0.5675790311131976  0.0675790311131977  0.6351580622263954
  0.8175790311131976  0.0675790311131977  0.6351580622263954
  0.0675790311131976  0.3175790311131977  0.6351580622263954
  0.3175790311131976  0.3175790311131977  0.6351580622263954
  0.5675790311131976  0.3175790311131977  0.6351580622263954
  0.8175790311131976  0.3175790311131977  0.6351580622263954
  0.0675790311131976  0.5675790311131976  0.6351580622263954
  0.3175790311131976  0.5675790311131976  0.6351580622263954
  0.5675790311131976  0.5675790311131976  0.6351580622263954
  0.8175790311131976  0.5675790311131976  0.6351580622263954
  0.0675790311131976  0.8175790311131976  0.6351580622263954
  0.3175790311131976  0.8175790311131976  0.6351580622263954
  0.5675790311131976  0.8175790311131976  0.6351580622263954
  0.8175790311131976  0.8175790311131976  0.6351580622263954
  0.1825151095437499  0.1825151095437499  0.3650302190874997
  0.4325151095437498  0.1825151095437499  0.3650302190874997
  0.6825151095437498  0.1825151095437499  0.3650302190874997
  0.9325151095437498  0.1825151095437499  0.3650302190874997
  0.1825151095437499  0.4325151095437498  0.3650302190874997
  0.4325151095437498  0.4325151095437498  0.3650302190874997
  0.6825151095437498  0.4325151095437498  0.3650302190874997
  0.9325151095437498  0.4325151095437498  0.3650302190874997
  0.1825151095437499  0.6825151095437498  0.3650302190874997
  0.4325151095437498  0.6825151095437498  0.3650302190874997
  0.6825151095437498  0.6825151095437498  0.3650302190874997
  0.9325151095437498  0.6825151095437498  0.3650302190874997
  0.1825151095437499  0.9325151095437498  0.3650302190874997
  0.4325151095437498  0.9325151095437498  0.3650302190874997
  0.6825151095437498  0.9325151095437498  0.3650302190874997
  0.9325151095437498  0.9325151095437498  0.3650302190874997
  0.1825151095437499  0.1825151095437499  0.8650302190874997
  0.4325151095437498  0.1825151095437499  0.8650302190874997
  0.6825151095437498  0.1825151095437499  0.8650302190874997
  0.9325151095437498  0.1825151095437499  0.8650302190874997
  0.1825151095437499  0.4325151095437498  0.8650302190874997
  0.4325151095437498  0.4325151095437498  0.8650302190874997
  0.6825151095437498  0.4325151095437498  0.8650302190874997
  0.9325151095437498  0.4325151095437498  0.8650302190874997
  0.1825151095437499  0.6825151095437498  0.8650302190874997
  0.4325151095437498  0.6825151095437498  0.8650302190874997
  0.6825151095437498  0.6825151095437498  0.8650302190874997
  0.9325151095437498  0.6825151095437498  0.8650302190874997
  0.1825151095437499  0.9325151095437498  0.8650302190874997
  0.4325151095437498  0.9325151095437498  0.8650302190874997
  0.6825151095437498  0.9325151095437498  0.8650302190874997
  0.9325151095437498  0.9325151095437498  0.8650302190874997
