Graphene
1.0
        2.4600000381         0.0000000000         0.0000000000
       -1.2250000238         2.1217622806         0.0000000000
        0.0000000000         0.0000000000        20.0000000000
    C
    2
Direct
     0.000000000         0.000000000         0.500000000
     0.333332986         0.666666687         0.500000000
