 System = AgCrS2-StructureOptimization
    ISTART = 0
    ICHARG = 2
    PREC   = Accurate
    LREAL  = .FALSE. !projection done in reciprocal space计算在倒数空间完成
    IBRION = 2       !conjugate gradient(CG) algorithm to relax the ions. 共轭梯度演算以松弛离子
    NSW    = 300     !the maximum number of ionic steps 粒子松弛的最大步数
    ISIF   = 3       !fix the lattice, only optimize the atomic posotions 固定晶格，只优化离子位置
    ISMEAR = 0       
    SIGMA  = 0.05
    ENCUT  = 400
    EDIFF  = 1.0E-8  !break condition for the eletronic SC-loop 电子循环跳出条件
    EDIFFG = -1.0E-4 !break condition for ionic relaxation of all forces 栗子松弛跳出条件
    POTIM  = 0.5
    NPAR   = 4
    NELM   = 60
    LCHARG = .F.
    LWAVE  = .F.


    