pymatgen with grid density = 868 / number of atoms
0
Gamma
7 7 1
